#=============================================================================
# Reduced PSGRN input for serial validation
#=============================================================================
        0.0       1
   11   0.0    50.0   1.0
    3   0.0    10.0
  128    30.0
 0.05
 0.00
 '../test_output/mpi_np1_smoke/'
 'uz'  'ur'  'ut'
 'szz' 'srr' 'stt' 'szr' 'srt' 'stz'
 'tr'  'tt'  'rot' 'gd'  'gr'
  9
1       0.0       2.5000    1.2000    2100.0     0.0E+00    0.0E+00    1.000
2       1.5       2.5000    1.2000    2100.0     0.0E+00    0.0E+00    1.000
3       1.5       4.5000    2.6000    2500.0     0.0E+00    0.0E+00    1.000
4       8.0       4.5000    2.6000    2500.0     0.0E+00    0.0E+00    1.000
5       8.0       6.2000    3.6000    2800.0     0.0E+00    0.0E+00    1.000
6      17.0       6.2000    3.6000    2800.0     0.0E+00    0.0E+00    1.000
7      17.0       6.4000    3.6000    2850.0     0.0E+00    0.0E+00    1.000
8      30.0       6.4000    3.6000    2850.0     0.0E+00    0.0E+00    1.000
9      30.0       6.8000    3.8000    2950.0     1.0E+17    1.0E+19    0.500
